(set-info :smt-lib-version 2.6)
(set-logic QF_SLIA)
(set-info :source |
Generated by: Joel Day, Thorsten Ehlers, Mitja Kulczynski, Federico Mora, Florin Manea, Dirk Nowotka, Danny Poulsen, Zhengyang Lu
Application: Test WOORPJE
Target solver: WOORPJE
Publications: Day, J. D., Ehlers, T., Kulczynski, M., Manea, F., Nowotka, D., & Poulsen, D. B. (2019). On solving word equations using SAT. In RP 2019
Description: Enriches a system of 30 word equations by suitable linear constraints
|)
(set-info :license "https://creativecommons.org/licenses/by/4.0/")
(set-info :category "random")
(set-info :status unknown)

(declare-fun I () String)
(declare-fun G () String)
(declare-fun D () String)
(assert (= (str.++  "cceacbccdecbfcffadbe" I "c" G "fbacadfcabd")  (str.++  "cceacbccdecb" G "c" G D "aabcecffbacad" G "cabd") ))
(assert (= (str.++  "eaa" G "dbbdebcdbe" G "acbdaccdb" G "beadbbfbddeaeba")  (str.++  "eaa" G "dbbdebcdbefacbdaccdbfbeadbb" G "bddeaeba") ))
(assert (= (str.++  "dbdadcbeceadbab" G "cedadbbdcacfccbaaebedace")  (str.++  "dbdadcbeceadbab" G "cedadbbdcac" G "ccbaaebedace") ))
(assert (>=(* (str.len I) 12) 24))
(assert (<=(* (str.len D) 9) 675))
(assert (>=(* (str.len G) 2) 2))
(check-sat)

(exit)
